set VV := 0 1 2 3 4 5 6 7 ;
set VS := 0 1 2 3 4 5 6 7 8 9 10 11 12 13 14 15 16 17 18 19 ;
param cv := 
0 10
1 12
2 16
3 14
4 13
5 15
6 25
7 23
;
param cs := 
0 23
1 38
2 40
3 20
4 35
5 30
6 36
7 39
8 30
9 26
10 34
11 34
12 34
13 27
14 22
15 37
16 24
17 25
18 37
19 21
;
param bv:	 0 1 2 3 4 5 6 7 := 
		0 0 0 17 0 0 11 0 0 
		1 0 0 19 0 13 0 0 11 
		2 0 0 0 13 10 0 0 0 
		3 0 0 0 0 0 0 15 0 
		4 0 0 0 0 0 0 0 0 
		5 0 0 0 0 0 0 0 0 
		6 0 0 0 0 0 0 0 0 
		7 0 0 0 0 0 0 0 0 
;
param bs:	 0 1 2 3 4 5 6 7 8 9 10 11 12 13 14 15 16 17 18 19 := 
		0 0 31 0 0 0 0 0 40 0 0 0 22 33 0 0 0 0 0 0 0 
		1 31 0 0 0 0 0 0 36 0 22 0 0 0 0 0 0 0 0 0 0 
		2 0 0 0 0 0 0 0 38 0 24 0 0 0 0 0 0 0 0 0 0 
		3 0 0 0 0 0 0 39 0 0 0 0 0 0 0 0 0 26 0 0 0 
		4 0 0 0 0 0 0 0 0 0 0 0 0 0 0 0 20 0 0 0 0 
		5 0 0 0 0 0 0 0 0 0 0 22 30 0 0 40 34 0 29 0 0 
		6 0 0 0 39 0 0 0 0 0 0 0 0 0 0 0 0 0 0 0 0 
		7 40 36 38 0 0 0 0 0 0 33 0 0 0 0 0 0 0 0 0 0 
		8 0 0 0 0 0 0 0 0 0 0 0 0 0 0 0 23 37 0 0 0 
		9 0 22 24 0 0 0 0 33 0 0 0 0 0 0 0 0 0 0 0 24 
		10 0 0 0 0 0 22 0 0 0 0 0 0 0 0 0 0 0 0 0 26 
		11 22 0 0 0 0 30 0 0 0 0 0 0 0 0 20 0 22 0 0 0 
		12 33 0 0 0 0 0 0 0 0 0 0 0 0 0 0 0 0 0 0 0 
		13 0 0 0 0 0 0 0 0 0 0 0 0 0 0 0 0 0 0 23 0 
		14 0 0 0 0 0 40 0 0 0 0 0 20 0 0 0 0 0 0 0 0 
		15 0 0 0 0 20 34 0 0 23 0 0 0 0 0 0 0 0 0 38 0 
		16 0 0 0 26 0 0 0 0 37 0 0 22 0 0 0 0 0 0 39 0 
		17 0 0 0 0 0 29 0 0 0 0 0 0 0 0 0 0 0 0 0 0 
		18 0 0 0 0 0 0 0 0 0 0 0 0 0 23 0 38 39 0 0 0 
		19 0 0 0 0 0 0 0 0 0 24 26 0 0 0 0 0 0 0 0 0 
;
